c uprop, v00.0, 
c reading from data/prog104.c.cnf
c done reading: 0.003347
p cnf 98 396
-48 -67 0
-52 -67 0
48 52 67 0
48 52 -73 0
-48 -52 -73 0
-48 52 73 0
48 -52 73 0
-57 67 0
-57 -58 0
57 58 -67 0
58 -62 -67 0
-58 -62 67 0
58 62 67 0
-58 62 -67 0
57 -66 0
-66 -69 0
-57 66 69 0
-57 69 -71 0
57 -69 -71 0
57 69 71 0
-57 -69 71 0
66 -72 0
-72 -74 0
-66 72 74 0
-50 -66 74 0
-50 66 -74 0
50 66 74 0
50 -66 -74 0
-46 72 0
-46 -55 0
46 55 -72 0
-45 55 -72 0
-45 -55 72 0
45 55 72 0
45 -55 -72 0
-44 46 0
-44 -60 0
44 -46 60 0
-43 -46 60 0
-43 46 -60 0
43 46 60 0
43 -46 -60 0
-42 44 0
-42 -64 0
42 -44 64 0
-41 -44 64 0
-41 44 -64 0
41 44 64 0
41 -44 -64 0
-40 52 0
-40 48 0
40 -48 -52 0
-39 -48 -52 0
-39 48 52 0
39 48 -52 0
39 -48 52 0
38 -52 -58 0
38 -40 -58 0
38 -40 -52 0
-38 52 58 0
-38 40 58 0
-38 40 52 0
-37 -38 58 0
-37 -38 52 0
-37 -38 40 0
37 38 -58 0
37 38 -52 0
37 38 -40 0
37 -40 -52 -58 0
-37 40 52 58 0
36 -58 -69 0
36 -38 -69 0
36 -38 -58 0
-36 58 69 0
-36 38 69 0
-36 38 58 0
-35 -36 69 0
-35 -36 58 0
-35 -36 38 0
35 36 -69 0
35 36 -58 0
35 36 -38 0
35 -38 -58 -69 0
-35 38 58 69 0
34 -69 -74 0
34 -36 -74 0
34 -36 -69 0
-34 69 74 0
-34 36 74 0
-34 36 69 0
-34 74 -76 0
-34 69 -76 0
-34 36 -76 0
34 -74 76 0
34 -69 76 0
34 -36 76 0
-36 -69 -74 76 0
36 69 74 -76 0
-55 -74 77 0
-34 -55 77 0
-34 -74 77 0
55 74 -77 0
34 55 -77 0
34 74 -77 0
55 -77 -78 0
74 -77 -78 0
34 -77 -78 0
-55 77 78 0
-74 77 78 0
-34 77 78 0
-34 -55 -74 78 0
34 55 74 -78 0
-55 -60 79 0
-60 -77 79 0
-55 -77 79 0
55 60 -79 0
60 77 -79 0
55 77 -79 0
60 -79 -80 0
55 -79 -80 0
77 -79 -80 0
-60 79 80 0
-55 79 80 0
-77 79 80 0
-55 -60 -77 80 0
55 60 77 -80 0
-60 -64 81 0
-64 -79 81 0
-60 -79 81 0
60 64 -81 0
64 79 -81 0
60 79 -81 0
-49 64 -81 0
-49 60 -81 0
-49 79 -81 0
49 -64 81 0
49 -60 81 0
49 -79 81 0
49 -60 -64 -79 0
-49 60 64 79 0
-53 64 0
-53 81 0
53 -64 -81 0
-59 -64 -81 0
-59 64 81 0
59 -64 81 0
59 64 -81 0
-48 -70 0
-39 -70 0
39 48 70 0
39 48 -75 0
-39 -48 -75 0
39 -48 75 0
-39 48 75 0
-56 70 0
-37 -56 0
37 56 -70 0
37 -61 -70 0
-37 -61 70 0
37 61 70 0
-37 61 -70 0
56 -65 0
-35 -65 0
35 -56 65 0
35 -56 -82 0
-35 56 -82 0
35 56 82 0
-35 -56 82 0
65 -83 0
-76 -83 0
-65 76 83 0
-65 76 -84 0
65 -76 -84 0
65 76 84 0
-65 -76 84 0
83 -86 0
-78 -86 0
78 -83 86 0
78 -83 -89 0
-78 83 -89 0
78 83 89 0
-78 -83 89 0
86 -90 0
-80 -90 0
80 -86 90 0
80 -86 -91 0
-80 86 -91 0
80 86 91 0
-80 -86 91 0
90 -92 0
-49 -92 0
49 -90 92 0
49 -90 -93 0
-49 90 -93 0
49 90 93 0
-49 -90 93 0
92 -94 0
-59 -94 0
59 -92 94 0
59 -92 -95 0
-59 92 -95 0
59 92 95 0
-59 -92 95 0
94 -96 0
-53 -96 0
53 -94 96 0
53 -94 -97 0
-53 94 -97 0
53 94 97 0
-53 -94 97 0
-85 -98 0
85 98 0
-33 -88 0
33 88 0
-31 -32 0
31 32 0
-28 -30 0
28 30 0
-26 -27 0
26 27 0
-23 -25 0
23 25 0
-22 85 0
22 -85 0
21 -85 -88 0
21 -88 0
21 -85 0
-21 85 88 0
-20 -21 88 0
-20 -21 85 0
20 21 -88 0
20 21 -85 0
20 21 0
20 -85 -88 0
19 -32 -88 0
19 -21 -32 0
19 -21 -88 0
-19 32 88 0
-19 21 32 0
-19 21 88 0
-18 -19 32 0
-18 -19 88 0
-18 -19 21 0
18 19 -32 0
18 19 -88 0
18 19 -21 0
18 -21 -32 -88 0
-18 21 32 88 0
17 -30 -32 0
17 -19 -30 0
17 -19 -32 0
-17 30 32 0
-17 19 30 0
-17 19 32 0
-16 -17 30 0
-16 -17 32 0
-16 -17 19 0
16 17 -30 0
16 17 -32 0
16 17 -19 0
16 -19 -30 -32 0
-16 19 30 32 0
15 -27 -30 0
15 -17 -27 0
15 -17 -30 0
-15 27 30 0
-15 17 27 0
-15 17 30 0
-14 -15 27 0
-14 -15 30 0
-14 -15 17 0
14 15 -27 0
14 15 -30 0
14 15 -17 0
14 -17 -27 -30 0
-14 17 27 30 0
13 -25 -27 0
13 -15 -25 0
13 -15 -27 0
-13 25 27 0
-13 15 25 0
-13 15 27 0
-12 -13 25 0
-12 -13 27 0
-12 -13 15 0
12 13 -25 0
12 13 -27 0
12 13 -15 0
12 -15 -25 -27 0
-12 15 25 27 0
-11 25 0
-11 13 0
11 -13 -25 0
-10 -13 -25 0
-10 13 25 0
10 13 -25 0
10 -13 25 0
-9 -22 0
9 22 0
-8 -20 0
8 20 0
-7 -18 0
7 18 0
-6 -16 0
6 16 0
-5 -14 0
5 14 0
-4 -12 0
4 12 0
-3 -10 0
3 10 0
-11 -47 0
11 47 0
48 -51 0
22 -51 0
-22 -48 51 0
-22 -48 0
22 48 0
-20 -39 68 0
-39 -51 68 0
-20 -51 68 0
20 39 -68 0
39 51 -68 0
20 51 -68 0
-39 68 0
-20 68 0
-51 68 0
-20 -39 -51 0
-18 -37 54 0
-37 54 -68 0
-18 54 -68 0
18 37 -54 0
37 -54 68 0
18 -54 68 0
37 -54 0
18 -54 0
-54 68 0
18 37 68 0
-16 -35 63 0
-35 -54 63 0
-16 -54 63 0
16 35 -63 0
35 54 -63 0
16 54 -63 0
-35 63 0
-16 63 0
-54 63 0
-16 -35 -54 0
2 -14 -76 0
2 -63 -76 0
2 -14 -63 0
-2 14 76 0
-2 63 76 0
-2 14 63 0
-2 76 0
-2 14 0
-2 63 0
14 63 76 0
-12 -78 87 0
-2 -78 87 0
-2 -12 87 0
12 78 -87 0
2 78 -87 0
2 12 -87 0
-78 87 0
-12 87 0
-2 87 0
-2 -12 -78 0
-10 29 -80 0
29 -80 -87 0
-10 29 -87 0
10 -29 80 0
-29 80 87 0
10 -29 87 0
29 -80 0
-10 29 0
29 -87 0
-10 -80 -87 0
-11 24 -49 0
24 -29 -49 0
-11 24 -29 0
11 -24 49 0
-24 29 49 0
11 -24 29 0
24 -49 0
-11 24 0
24 -29 0
-11 -29 -49 0
-1 59 0
-1 24 0
1 -24 -59 0
24 -59 0
-24 59 0
-1 -53 0
1 -53 0
-1 53 0
